WARNING: for repeatability, setting FPU to use double precision
============================[ Problem Statistics ]=============================
|                                                                             |
|  Number of variables:            45                                         |
|  Number of clauses:             189                                         |
|  Parse time:                   0.00 s                                       |
|                                                                             |
============================[ Search Statistics ]==============================
| Conflicts |          ORIGINAL         |          LEARNT          | Progress |
|           |    Vars  Clauses Literals |    Limit  Clauses Lit/Cl |          |
===============================================================================
|       100 |      45      189      405 |       69       60      8 |  0.109 % |
===============================================================================
restarts              : 2
conflicts             : 156            (inf /sec)
decisions             : 189            (0.00 % random) (inf /sec)
propagations          : 2601           (inf /sec)
conflict literals     : 1121           (17.39 % deleted)
Memory used           : 11.00 MB
CPU time              : 0 s

UNSATISFIABLE
